120
150
44
54
57
49
60
49
46
51
53
46
48
54
54
50
48
47
47
56
50
56
46
44
45
44
40
53
50
47
54
54
50
59
59
50
44
54
54
41
42
41
41
55
47
48
50
44
56
57
49
51
57
59
60
54
55
58
44
48
44
54
43
53
50
50
50
42
50
48
50
50
57
50
50
50
43
41
50
52
48
52
57
44
60
46
51
44
55
52
53
45
60
44
54
46
50
46
49
51
50
41
51
46
59
44
53
47
52
53
45
41
48
52
50
54
41
55
50
53
47
59
